\ This file has been generated by DOcplex
\ ENCODING=ISO-8859-1
\Problem name: random_problem.lp

Minimize
 obj: 280 x0 + 140 x1 - 672 x2 - 336 x3 + 498 x4 + 249 x5 + [ 536 x0^2
      + 536 x0*x1 + 1184 x0*x2 + 592 x0*x3 + 432 x0*x4 + 216 x0*x5 + 134 x1^2
      + 592 x1*x2 + 296 x1*x3 + 216 x1*x4 + 108 x1*x5 + 1048 x2^2 + 1048 x2*x3
      + 448 x2*x4 + 224 x2*x5 + 262 x3^2 + 224 x3*x4 + 112 x3*x5 + 680 x4^2
      + 680 x4*x5 + 170 x5^2 ]/2
Subject To
 c0: 2 x0 + x1 + 2 x2 + x3 + 2 x4 + x5 = 3

Bounds
 0 <= x0 <= 1
 0 <= x1 <= 1
 0 <= x2 <= 1
 0 <= x3 <= 1
 0 <= x4 <= 1
 0 <= x5 <= 1

Binaries
 x0 x1 x2 x3 x4 x5
End
